NAME : instances/20-120-tsp/instance-36.tsp
COMMENT : No Comment
TYPE : TSP
DIMENSION: 36
EDGE_WEIGHT_TYPE : EUC_2D
NODE_COORD_SECTION
1 7333 1641 
2 7045 1988 
3 575 3236 
4 9366 4846 
5 8059 5130 
6 1932 5151 
7 1720 1517 
8 1213 1380 
9 8769 7149 
10 3279 5726 
11 2230 5552 
12 2822 4483 
13 5823 7458 
14 2660 9986 
15 6846 6290 
16 3414 85 
17 2837 6485 
18 6095 3938 
19 9375 457 
20 5961 2499 
21 8686 9528 
22 906 9679 
23 5830 2595 
24 1901 6162 
25 7949 8416 
26 8671 3969 
27 3008 4161 
28 4980 6358 
29 3783 2650 
30 1829 8075 
31 35 791 
32 37 6867 
33 2340 6860 
34 3987 557 
35 6606 5320 
36 1183 5098 
EOF
